NAME : lr109.1208964.tour
COMMENT : Cost = 0_1208964
COMMENT : Found by LKH [Keld Helsgaun] Fri Sep 15 17:42:01 2017
TYPE : TOUR
DIMENSION : 117
TOUR_SECTION
1
40
68
24
76
23
42
75
57
104
5
114
29
30
79
80
4
69
78
51
110
96
93
99
43
16
58
106
88
98
44
14
59
113
63
12
65
64
91
33
11
102
115
13
77
34
82
10
36
35
103
25
81
117
84
6
62
17
86
100
105
95
7
97
108
28
70
31
52
72
66
67
21
71
2
112
53
32
89
8
19
9
47
18
61
90
109
60
45
15
39
87
85
38
101
92
94
116
3
73
74
22
41
54
27
55
56
26
111
46
83
20
48
37
50
107
49
-1
EOF
